atom_style full
bond_style harmonic
angle_style harmonic
dihedral_style opls
improper_style harmonic

read_data SEBS1TMA_DPD.data
